(declare-fun var0 () String)
(assert (str.in.re var0 (re.++ (re.+ (re.union (str.to.re "xxx") (str.to.re "yy"))) (re.++ (re.* (re.+ (str.to.re "w"))) (re.++ (re.+ (re.+ (str.to.re "vvv"))) (re.++ (re.+ (re.union (str.to.re "tt") (str.to.re "uuu"))) (re.++ (re.* (re.+ (str.to.re "sss"))) (re.++ (re.+ (re.* (str.to.re "rr"))) (re.++ (re.+ (re.* (str.to.re "qq"))) (re.++ (re.union (re.union (str.to.re "mmm") (str.to.re "n")) (re.union (str.to.re "o") (str.to.re "p"))) (re.++ (re.+ (re.* (str.to.re "lll"))) (re.++ (re.union (re.union (str.to.re "ii") (str.to.re "jj")) (re.+ (str.to.re "kk"))) (re.++ (re.+ (re.* (str.to.re "hhh"))) (re.++ (re.union (re.+ (str.to.re "ee")) (re.union (str.to.re "f") (str.to.re "ggg"))) (re.++ (re.union (re.union (str.to.re "a") (str.to.re "b")) (re.union (str.to.re "c") (str.to.re "dd"))) (re.++ (re.union (re.union (str.to.re "777") (str.to.re "888")) (re.+ (str.to.re "99"))) (re.++ (re.+ (re.union (str.to.re "55") (str.to.re "6"))) (re.++ (re.union (re.union (str.to.re "222") (str.to.re "33")) (re.* (str.to.re "44"))) (re.+ (re.union (str.to.re "00") (str.to.re "11")))))))))))))))))))))
(check-sat)